%BLOCK LATTICE_CART
ang
   5.685798 -2.842898  0.      
  0.       4.924046 0.      
   0.        0.       28.291229
%ENDBLOCK LATTICE_CART

%BLOCK SPECIES
O_F O 8 ngwf_num ngwf_rad
Co_F Co 27 ngwf_num ngwf_rad
O_T O 8 ngwf_num ngwf_rad
Li_T Li 3 ngwf_num ngwf_rad
Co_T Co 27 ngwf_num ngwf_rad
%ENDBLOCK SPECIES

%BLOCK SPECIES_CONSTRAINTS
O_F FIXED
Co_F FIXED
O_T NONE
Li_T NONE
Co_T NONE
%ENDBLOCK SPECIES_CONSTRAINTS


%BLOCK POSITIONS_ABS
ang
Li_T 0.333334 0.666666 0.166666 
Co_T 0.000000 0.500000 0.750000 
Co_F 0.000000 0.500000 0.250000
O_F 0.666666 0.333334 0.453127
O_T 0.333334 0.666666 0.046873 
O_F 0.333334 0.666666 0.546873
O_F 0.833333 0.666666 0.046873
%ENDBLOCK POSITIONS_ABS
