Li12 Co24 O48
1.0
5.685798 0.000000 0.000000
-2.842898 4.924046 0.000000
0.000000 0.000000 28.291229
Li Co O
1 2 4
Selective dynamics
direct
0.333334 0.666666 0.166666 T T T Li
0.000000 0.500000 0.750000 T T T Co
0.000000 0.500000 0.250000 F F F Co
0.666666 0.333334 0.453127 F F F O
0.333334 0.666666 0.046873 T T T O
0.333334 0.666666 0.546873 F F F O
0.833333 0.666666 0.046873 F F F O